% seed = 2541102

mint = 83;
% maxt = 219;

nActs = 42;
dur = [0,10,7,8,2,2,5,7,3,7,2,4,4,7,4,10,2,5,6,5,10,3,8,4,7,1,9,3,4,1,5,2,6,8,5,3,10,7,8,8,7,0];

nSkills = 4;
sreq = [| 0,0,0,0,
	| 2,6,0,0,
	| 7,3,1,4,
	| 2,3,2,5,
	| 0,7,3,2,
	| 4,1,3,6,
	| 4,5,4,2,
	| 2,2,3,5,
	| 3,0,5,4,
	| 4,0,3,5,
	| 2,4,3,3,
	| 4,1,0,1,
	| 4,2,3,0,
	| 0,5,4,3,
	| 0,4,6,0,
	| 3,3,3,2,
	| 4,5,1,4,
	| 4,0,0,6,
	| 5,0,7,0,
	| 6,0,7,0,
	| 2,4,3,3,
	| 3,2,2,3,
	| 3,3,6,3,
	| 5,5,3,7,
	| 5,3,3,2,
	| 2,4,3,3,
	| 0,7,0,6,
	| 0,5,6,0,
	| 4,3,4,0,
	| 0,7,5,0,
	| 4,5,3,0,
	| 0,5,7,5,
	| 6,6,0,0,
	| 7,0,4,3,
	| 1,5,0,5,
	| 6,5,0,0,
	| 4,1,3,1,
	| 0,0,6,5,
	| 2,4,2,3,
	| 7,2,0,3,
	| 5,0,2,3,
	| 0,0,0,0, |];

nResources = 38;
mastery = [| true,true,false,true,
	| false,false,true,false,
	| false,true,true,true,
	| true,false,true,true,
	| true,true,false,true,
	| true,false,false,false,
	| false,false,true,true,
	| true,true,false,false,
	| false,true,false,false,
	| true,true,true,false,
	| true,true,true,false,
	| true,false,false,true,
	| false,false,false,true,
	| false,true,false,false,
	| false,false,false,true,
	| false,false,true,false,
	| true,true,false,true,
	| true,true,false,false,
	| true,true,false,true,
	| true,false,true,true,
	| true,true,true,false,
	| true,true,false,true,
	| false,false,true,false,
	| false,true,true,true,
	| true,false,true,true,
	| true,true,true,false,
	| true,false,false,false,
	| false,true,true,true,
	| false,false,true,false,
	| false,false,false,true,
	| false,true,false,false,
	| false,true,true,false,
	| true,false,false,false,
	| true,true,true,false,
	| true,false,false,true,
	| true,true,false,true,
	| true,true,false,true,
	| false,true,true,true, |];

nPrecs = 85;
pred = [1,1,1,2,2,2,3,3,3,4,4,4,5,5,6,6,6,7,7,8,8,8,9,9,10,10,10,11,11,11,12,13,13,13,14,14,14,15,15,15,16,16,16,17,17,18,18,19,19,19,20,20,20,21,21,21,22,22,23,24,24,25,25,26,26,27,28,28,28,29,30,30,31,32,32,33,34,35,36,36,37,38,39,40,41];
succ = [2,3,4,5,14,7,21,13,6,12,13,15,9,41,27,20,24,12,8,10,11,34,12,23,17,28,15,18,22,39,19,28,14,23,34,29,30,35,21,16,25,27,32,25,21,35,38,26,31,34,35,28,39,27,29,22,31,24,40,30,32,26,30,37,39,41,29,31,32,33,36,38,33,33,36,37,37,36,41,40,38,40,42,42,42];

nUnrels = 374;
unpred = [2,2,2,2,2,3,3,3,3,3,3,3,3,3,3,3,3,3,3,3,4,4,4,4,4,4,4,4,4,4,5,5,5,5,5,5,5,5,5,5,5,5,5,5,5,5,5,5,5,5,5,5,5,6,6,6,6,6,6,6,6,6,6,6,6,6,6,6,6,6,6,6,7,7,7,7,7,8,8,8,8,8,8,8,9,9,9,9,9,9,9,9,9,9,9,9,9,9,9,9,9,9,9,9,9,10,10,10,10,10,10,10,10,10,11,11,11,11,11,11,11,11,11,11,11,11,11,11,11,11,12,12,12,12,12,12,12,12,12,12,12,12,12,12,12,12,12,12,12,12,13,13,13,13,13,13,13,13,13,13,13,13,13,13,14,14,14,14,14,14,14,14,14,14,14,14,14,14,14,14,14,14,15,15,15,15,15,15,15,16,16,16,16,16,16,16,16,16,16,16,16,16,17,17,17,17,17,17,17,18,18,18,18,18,18,18,18,18,18,18,18,18,18,18,18,18,18,19,19,19,19,19,19,19,19,19,19,19,19,19,19,20,20,20,20,20,20,20,20,20,21,21,21,21,21,21,21,22,22,22,22,22,22,22,22,22,23,23,23,23,23,23,23,23,23,23,23,23,23,23,23,23,23,24,24,24,24,24,24,24,24,24,25,25,25,25,25,25,25,25,26,26,26,26,26,26,26,26,26,26,26,27,27,27,27,27,27,27,27,27,27,27,27,27,28,28,28,28,29,29,29,29,29,29,29,29,30,30,30,30,30,30,30,31,31,31,31,31,31,32,32,32,33,33,33,33,33,34,34,34,34,35,35,35,36,36,36,37,37,38,38,39,39,40];
unsucc = [3,4,6,13,20,4,5,7,8,9,10,11,12,15,16,17,18,19,25,26,5,6,7,8,9,10,11,17,18,20,6,7,8,10,11,13,14,15,16,17,18,20,21,22,24,25,27,28,29,30,32,35,36,7,8,9,10,11,12,13,14,15,16,17,18,19,21,22,23,25,26,34,9,13,14,20,23,9,12,13,14,19,20,23,10,11,13,14,15,16,17,18,20,21,22,24,25,27,28,29,30,32,35,36,41,11,12,13,14,18,19,20,23,34,12,13,14,15,16,17,19,20,21,23,25,26,27,28,29,34,13,14,15,16,17,18,20,21,22,23,24,25,27,28,29,30,32,35,36,41,15,16,17,18,19,20,21,22,24,25,26,27,35,39,15,16,17,18,19,20,21,22,23,24,25,26,27,28,31,32,35,39,17,18,19,20,23,28,34,17,18,19,20,21,22,23,24,28,29,31,34,35,18,19,20,23,28,34,35,19,20,21,22,23,24,25,26,27,28,29,30,31,32,33,34,37,39,20,21,22,23,24,25,27,28,29,30,32,35,36,41,21,22,23,24,25,26,27,30,34,23,25,26,28,34,35,39,23,25,26,27,28,29,34,35,39,24,25,26,27,28,29,30,31,32,33,34,35,36,37,38,39,41,25,26,27,28,29,31,34,35,39,27,28,29,31,32,33,34,35,27,28,29,30,31,32,33,34,35,36,41,28,29,30,31,32,33,34,35,36,37,38,39,40,30,34,35,39,30,31,32,34,35,36,39,41,31,32,33,34,35,37,39,32,34,35,36,39,41,34,35,39,34,35,36,39,41,35,36,39,41,37,38,39,37,38,39,39,41,39,41,40,41,41];

USEFUL_RES = [{},
	{1,3,4,5,6,8,9,10,11,12,14,17,18,19,20,21,22,24,25,26,27,28,31,32,33,34,35,36,37,38},
	{1,2,3,4,5,6,7,8,9,10,11,12,13,14,15,16,17,18,19,20,21,22,23,24,25,26,27,28,29,30,31,32,33,34,35,36,37,38},
	{1,2,3,4,5,6,7,8,9,10,11,12,13,14,15,16,17,18,19,20,21,22,23,24,25,26,27,28,29,30,31,32,33,34,35,36,37,38},
	{1,2,3,4,5,7,8,9,10,11,12,13,14,15,16,17,18,19,20,21,22,23,24,25,26,28,29,30,31,32,34,35,36,37,38},
	{1,2,3,4,5,6,7,8,9,10,11,12,13,14,15,16,17,18,19,20,21,22,23,24,25,26,27,28,29,30,31,32,33,34,35,36,37,38},
	{1,2,3,4,5,6,7,8,9,10,11,12,13,14,15,16,17,18,19,20,21,22,23,24,25,26,27,28,29,30,31,32,33,34,35,36,37,38},
	{1,2,3,4,5,6,7,8,9,10,11,12,13,14,15,16,17,18,19,20,21,22,23,24,25,26,27,28,29,30,31,32,33,34,35,36,37,38},
	{1,2,3,4,5,6,7,8,10,11,12,13,15,16,17,18,19,20,21,22,23,24,25,26,27,28,29,30,32,33,34,35,36,37,38},
	{1,2,3,4,5,6,7,8,10,11,12,13,15,16,17,18,19,20,21,22,23,24,25,26,27,28,29,30,32,33,34,35,36,37,38},
	{1,2,3,4,5,6,7,8,9,10,11,12,13,14,15,16,17,18,19,20,21,22,23,24,25,26,27,28,29,30,31,32,33,34,35,36,37,38},
	{1,3,4,5,6,7,8,9,10,11,12,13,14,15,17,18,19,20,21,22,24,25,26,27,28,30,31,32,33,34,35,36,37,38},
	{1,2,3,4,5,6,7,8,9,10,11,12,14,16,17,18,19,20,21,22,23,24,25,26,27,28,29,31,32,33,34,35,36,37,38},
	{1,2,3,4,5,7,8,9,10,11,12,13,14,15,16,17,18,19,20,21,22,23,24,25,26,28,29,30,31,32,34,35,36,37,38},
	{1,2,3,4,5,7,8,9,10,11,14,16,17,18,19,20,21,22,23,24,25,26,28,29,31,32,34,36,37,38},
	{1,2,3,4,5,6,7,8,9,10,11,12,13,14,15,16,17,18,19,20,21,22,23,24,25,26,27,28,29,30,31,32,33,34,35,36,37,38},
	{1,2,3,4,5,6,7,8,9,10,11,12,13,14,15,16,17,18,19,20,21,22,23,24,25,26,27,28,29,30,31,32,33,34,35,36,37,38},
	{1,3,4,5,6,7,8,10,11,12,13,15,17,18,19,20,21,22,24,25,26,27,28,30,33,34,35,36,37,38},
	{1,2,3,4,5,6,7,8,10,11,12,16,17,18,19,20,21,22,23,24,25,26,27,28,29,32,33,34,35,36,37,38},
	{1,2,3,4,5,6,7,8,10,11,12,16,17,18,19,20,21,22,23,24,25,26,27,28,29,32,33,34,35,36,37,38},
	{1,2,3,4,5,6,7,8,9,10,11,12,13,14,15,16,17,18,19,20,21,22,23,24,25,26,27,28,29,30,31,32,33,34,35,36,37,38},
	{1,2,3,4,5,6,7,8,9,10,11,12,13,14,15,16,17,18,19,20,21,22,23,24,25,26,27,28,29,30,31,32,33,34,35,36,37,38},
	{1,2,3,4,5,6,7,8,9,10,11,12,13,14,15,16,17,18,19,20,21,22,23,24,25,26,27,28,29,30,31,32,33,34,35,36,37,38},
	{1,2,3,4,5,6,7,8,9,10,11,12,13,14,15,16,17,18,19,20,21,22,23,24,25,26,27,28,29,30,31,32,33,34,35,36,37,38},
	{1,2,3,4,5,6,7,8,9,10,11,12,13,14,15,16,17,18,19,20,21,22,23,24,25,26,27,28,29,30,31,32,33,34,35,36,37,38},
	{1,2,3,4,5,6,7,8,9,10,11,12,13,14,15,16,17,18,19,20,21,22,23,24,25,26,27,28,29,30,31,32,33,34,35,36,37,38},
	{1,3,4,5,7,8,9,10,11,12,13,14,15,17,18,19,20,21,22,24,25,26,28,30,31,32,34,35,36,37,38},
	{1,2,3,4,5,7,8,9,10,11,14,16,17,18,19,20,21,22,23,24,25,26,28,29,31,32,34,36,37,38},
	{1,2,3,4,5,6,7,8,9,10,11,12,14,16,17,18,19,20,21,22,23,24,25,26,27,28,29,31,32,33,34,35,36,37,38},
	{1,2,3,4,5,7,8,9,10,11,14,16,17,18,19,20,21,22,23,24,25,26,28,29,31,32,34,36,37,38},
	{1,2,3,4,5,6,7,8,9,10,11,12,14,16,17,18,19,20,21,22,23,24,25,26,27,28,29,31,32,33,34,35,36,37,38},
	{1,2,3,4,5,7,8,9,10,11,12,13,14,15,16,17,18,19,20,21,22,23,24,25,26,28,29,30,31,32,34,35,36,37,38},
	{1,3,4,5,6,8,9,10,11,12,14,17,18,19,20,21,22,24,25,26,27,28,31,32,33,34,35,36,37,38},
	{1,2,3,4,5,6,7,8,10,11,12,13,15,16,17,18,19,20,21,22,23,24,25,26,27,28,29,30,32,33,34,35,36,37,38},
	{1,3,4,5,6,7,8,9,10,11,12,13,14,15,17,18,19,20,21,22,24,25,26,27,28,30,31,32,33,34,35,36,37,38},
	{1,3,4,5,6,8,9,10,11,12,14,17,18,19,20,21,22,24,25,26,27,28,31,32,33,34,35,36,37,38},
	{1,2,3,4,5,6,7,8,9,10,11,12,13,14,15,16,17,18,19,20,21,22,23,24,25,26,27,28,29,30,31,32,33,34,35,36,37,38},
	{1,2,3,4,5,7,10,11,12,13,15,16,17,19,20,21,22,23,24,25,26,28,29,30,32,34,35,36,37,38},
	{1,2,3,4,5,6,7,8,9,10,11,12,13,14,15,16,17,18,19,20,21,22,23,24,25,26,27,28,29,30,31,32,33,34,35,36,37,38},
	{1,3,4,5,6,7,8,9,10,11,12,13,14,15,17,18,19,20,21,22,24,25,26,27,28,30,31,32,33,34,35,36,37,38},
	{1,2,3,4,5,6,7,8,10,11,12,13,15,16,17,18,19,20,21,22,23,24,25,26,27,28,29,30,32,33,34,35,36,37,38},
	{}];

POTENTIAL_ACT = [{2,3,4,5,6,7,8,9,10,11,12,13,14,15,16,17,18,19,20,21,22,23,24,25,26,27,28,29,30,31,32,33,34,35,36,37,38,39,40,41},
	{3,4,5,6,7,8,9,10,11,13,14,15,16,17,19,20,21,22,23,24,25,26,28,29,30,31,32,34,37,38,39,41},
	{2,3,4,5,6,7,8,9,10,11,12,13,14,15,16,17,18,19,20,21,22,23,24,25,26,27,28,29,30,31,32,33,34,35,36,37,38,39,40,41},
	{2,3,4,5,6,7,8,9,10,11,12,13,14,15,16,17,18,19,20,21,22,23,24,25,26,27,28,29,30,31,32,33,34,35,36,37,38,39,40,41},
	{2,3,4,5,6,7,8,9,10,11,12,13,14,15,16,17,18,19,20,21,22,23,24,25,26,27,28,29,30,31,32,33,34,35,36,37,38,39,40,41},
	{2,3,4,6,7,8,9,10,11,12,13,16,17,18,19,20,21,22,23,24,25,26,29,31,33,34,35,36,37,39,40,41},
	{3,4,5,6,7,8,9,10,11,12,13,14,15,16,17,18,19,20,21,22,23,24,25,26,27,28,29,30,31,32,34,35,37,38,39,40,41},
	{2,3,4,5,6,7,8,9,10,11,12,13,14,15,16,17,18,19,20,21,22,23,24,25,26,27,28,29,30,31,32,33,34,35,36,37,39,40,41},
	{2,3,4,5,6,7,8,11,12,13,14,15,16,17,21,22,23,24,25,26,27,28,29,30,31,32,33,35,36,37,39,40},
	{2,3,4,5,6,7,8,9,10,11,12,13,14,15,16,17,18,19,20,21,22,23,24,25,26,27,28,29,30,31,32,33,34,35,36,37,38,39,40,41},
	{2,3,4,5,6,7,8,9,10,11,12,13,14,15,16,17,18,19,20,21,22,23,24,25,26,27,28,29,30,31,32,33,34,35,36,37,38,39,40,41},
	{2,3,4,5,6,7,8,9,10,11,12,13,14,16,17,18,19,20,21,22,23,24,25,26,27,29,31,32,33,34,35,36,37,38,39,40,41},
	{3,4,5,6,7,8,9,10,11,12,14,16,17,18,21,22,23,24,25,26,27,32,34,35,37,38,39,40,41},
	{2,3,4,5,6,7,8,11,12,13,14,15,16,17,21,22,23,24,25,26,27,28,29,30,31,32,33,35,36,37,39,40},
	{3,4,5,6,7,8,9,10,11,12,14,16,17,18,21,22,23,24,25,26,27,32,34,35,37,38,39,40,41},
	{3,4,5,6,7,8,9,10,11,13,14,15,16,17,19,20,21,22,23,24,25,26,28,29,30,31,32,34,37,38,39,41},
	{2,3,4,5,6,7,8,9,10,11,12,13,14,15,16,17,18,19,20,21,22,23,24,25,26,27,28,29,30,31,32,33,34,35,36,37,38,39,40,41},
	{2,3,4,5,6,7,8,9,10,11,12,13,14,15,16,17,18,19,20,21,22,23,24,25,26,27,28,29,30,31,32,33,34,35,36,37,39,40,41},
	{2,3,4,5,6,7,8,9,10,11,12,13,14,15,16,17,18,19,20,21,22,23,24,25,26,27,28,29,30,31,32,33,34,35,36,37,38,39,40,41},
	{2,3,4,5,6,7,8,9,10,11,12,13,14,15,16,17,18,19,20,21,22,23,24,25,26,27,28,29,30,31,32,33,34,35,36,37,38,39,40,41},
	{2,3,4,5,6,7,8,9,10,11,12,13,14,15,16,17,18,19,20,21,22,23,24,25,26,27,28,29,30,31,32,33,34,35,36,37,38,39,40,41},
	{2,3,4,5,6,7,8,9,10,11,12,13,14,15,16,17,18,19,20,21,22,23,24,25,26,27,28,29,30,31,32,33,34,35,36,37,38,39,40,41},
	{3,4,5,6,7,8,9,10,11,13,14,15,16,17,19,20,21,22,23,24,25,26,28,29,30,31,32,34,37,38,39,41},
	{2,3,4,5,6,7,8,9,10,11,12,13,14,15,16,17,18,19,20,21,22,23,24,25,26,27,28,29,30,31,32,33,34,35,36,37,38,39,40,41},
	{2,3,4,5,6,7,8,9,10,11,12,13,14,15,16,17,18,19,20,21,22,23,24,25,26,27,28,29,30,31,32,33,34,35,36,37,38,39,40,41},
	{2,3,4,5,6,7,8,9,10,11,12,13,14,15,16,17,18,19,20,21,22,23,24,25,26,27,28,29,30,31,32,33,34,35,36,37,38,39,40,41},
	{2,3,4,6,7,8,9,10,11,12,13,16,17,18,19,20,21,22,23,24,25,26,29,31,33,34,35,36,37,39,40,41},
	{2,3,4,5,6,7,8,9,10,11,12,13,14,15,16,17,18,19,20,21,22,23,24,25,26,27,28,29,30,31,32,33,34,35,36,37,38,39,40,41},
	{3,4,5,6,7,8,9,10,11,13,14,15,16,17,19,20,21,22,23,24,25,26,28,29,30,31,32,34,37,38,39,41},
	{3,4,5,6,7,8,9,10,11,12,14,16,17,18,21,22,23,24,25,26,27,32,34,35,37,38,39,40,41},
	{2,3,4,5,6,7,8,11,12,13,14,15,16,17,21,22,23,24,25,26,27,28,29,30,31,32,33,35,36,37,39,40},
	{2,3,4,5,6,7,8,9,10,11,12,13,14,15,16,17,19,20,21,22,23,24,25,26,27,28,29,30,31,32,33,34,35,36,37,38,39,40,41},
	{2,3,4,6,7,8,9,10,11,12,13,16,17,18,19,20,21,22,23,24,25,26,29,31,33,34,35,36,37,39,40,41},
	{2,3,4,5,6,7,8,9,10,11,12,13,14,15,16,17,18,19,20,21,22,23,24,25,26,27,28,29,30,31,32,33,34,35,36,37,38,39,40,41},
	{2,3,4,5,6,7,8,9,10,11,12,13,14,16,17,18,19,20,21,22,23,24,25,26,27,29,31,32,33,34,35,36,37,38,39,40,41},
	{2,3,4,5,6,7,8,9,10,11,12,13,14,15,16,17,18,19,20,21,22,23,24,25,26,27,28,29,30,31,32,33,34,35,36,37,38,39,40,41},
	{2,3,4,5,6,7,8,9,10,11,12,13,14,15,16,17,18,19,20,21,22,23,24,25,26,27,28,29,30,31,32,33,34,35,36,37,38,39,40,41},
	{2,3,4,5,6,7,8,9,10,11,12,13,14,15,16,17,18,19,20,21,22,23,24,25,26,27,28,29,30,31,32,33,34,35,36,37,38,39,40,41}];
